\ Model coloration
\ LP format - for model browsing. Use MPS format to capture full model detail.
Minimize
  x,0,0, + x,0,1, + x,0,2, + x,0,3, + x,1,0, + x,1,1, + x,1,2, + x,1,3,
Subject To
 C_0/mutuelle/L_0: y,0,0,0, + y,0,1,0, + y,0,2,0, = 1
 C_1/mutuelle/L_1: y,1,0,0, + y,1,1,0, = 1
 C_2/mutuelle/L_1: y,1,2,1, + y,1,3,1, = 1
 C_3/Q10/L_0: - x,0,0, - x,0,1, + 2 y,0,0,0, <= 0
 C_4/Q10/C_0: - x,0,0, + z,0,0,0, <= 0
 C_5/Q10/L_0: - x,0,1, - x,0,2, + 2 y,0,1,0, <= 0
 C_6/Q10/C_1: - x,0,1, + z,0,1,0, <= 0
 C_7/Q10/L_0: - x,0,2, - x,0,3, + 2 y,0,2,0, <= 0
 C_8/Q10/C_2: - x,0,2, + z,0,2,0, <= 0
 C_9/Q10/C_3: - x,0,3, + z,0,3,0, <= 0
 C_10/Q10/L_1: - x,1,0, + y,1,0,0, <= 0
 C_11/Q10/C_0: - x,1,0, + z,1,0,0, <= 0
 C_12/ordre/L_1: y,1,1,0, + y,1,2,1, <= 1
 C_13/Q10/L_1: - x,1,1, + y,1,1,0, <= 0
 C_14/Q10/C_1: - x,1,1, + z,1,1,0, <= 0
 C_15/Q10/L_1: - x,1,2, + y,1,2,1, <= 0
 C_16/Q10/C_2: - x,1,2, + z,1,2,0, <= 0
 C_17/Q10/L_1: - x,1,3, + y,1,3,1, <= 0
 C_18/Q10/C_3: - x,1,3, + z,1,3,0, <= 0
 C_19/mutuelle/C_0: z,0,0,0, + z,1,0,0, = 1
 C_20/mutuelle/C_1: z,0,1,0, + z,1,1,0, = 1
 C_21/mutuelle/C_2: z,0,2,0, + z,1,2,0, = 1
 C_22/mutuelle/C_3: z,0,3,0, + z,1,3,0, = 1
Bounds
Binaries
 x,0,0, x,0,1, x,0,2, x,0,3, x,1,0, x,1,1, x,1,2, x,1,3, y,0,0,0, y,0,1,0,
 y,0,2,0, y,1,0,0, y,1,1,0, y,1,2,1, y,1,3,1, z,0,0,0, z,1,0,0, z,0,1,0,
 z,1,1,0, z,0,2,0, z,1,2,0, z,0,3,0, z,1,3,0,
End
